0 464
1 456
3 428
5 404
6 370
8 362
9 334
13 330
15 326
27 322
36 318
37 312
38 308
40 292
44 288
50 284
75 282
81 280
84 278
87 258
120 250
127 242
134 238
166 230
176 226
188 222
191 218
223 216
235 208
248 206
251 194
318 190
383 186
651 182
692 176
750 172
910 168
1076 164
